HFSDDW
15	6	2
0	97	1	77
0	18	1	67
0	26	1	85
0	51	1	3
0	78	1	22
0	59	1	53
0	23	1	29
0	75	1	39
0	14	1	40
0	20	1	19
0	53	1	7
0	3	1	20
0	46	1	20
0	14	1	83
0	89	1	30
LBCmax: 232
RELDUE
-1	188	7	7
-1	207	5	3
-1	175	4	6
-1	173	3	4
-1	164	4	5
-1	191	9	7
-1	208	9	2
-1	207	1	7
-1	209	7	2
-1	194	5	6
-1	209	6	3
-1	162	9	3
-1	194	2	4
-1	165	2	4
-1	188	5	2
DDW
177	199
199	215
158	192
161	185
151	177
180	202
193	223
195	219
199	219
180	208
201	217
152	172
175	213
153	177
184	192
